p cnf 91 377
7 9 40 45 46 -87 0
7 9 45 -47 55 64 0
10 21 22 69 -72 -77 0
12 13 -31 58 -73 78 0
12 -31 57 58 -78 79 0
-14 -31 58 -73 78 79 0
1 -42 45 60 83 0
2 -32 -35 59 -61 0
3 4 23 51 -68 0
-3 -19 -23 51 -85 0
7 8 9 -48 64 0
7 8 9 55 64 0
-8 42 45 46 -87 0
10 20 21 22 -69 0
10 -21 22 -72 -77 0
-16 -19 67 -89 91 0
-16 67 85 -89 91 0
-17 22 71 -72 -77 0
9 45 -47 55 64 0
10 20 21 -72 88 0
11 -31 57 58 -80 0
12 26 -27 -28 -31 0
20 22 41 71 -72 0
1 10 83 88 0
1 60 83 88 0
-1 8 -10 -88 0
2 -32 -35 59 0
2 -32 -35 -61 0
-2 -5 -65 82 0
3 4 16 51 0
3 19 32 56 0
-3 4 -16 67 0
-4 -23 -61 -84 0
-5 -63 -65 82 0
-6 36 37 62 0
8 -46 -48 64 0
10 26 -27 -28 0
10 -27 34 57 0
-15 29 57 58 0
17 43 44 77 0
-19 51 -68 -91 0
-19 -51 -81 -85 0
-19 68 -86 89 0
20 53 -72 88 0
23 27 32 34 0
23 -74 -75 76 0
-23 25 -27 -34 0
25 33 56 59 0
37 -61 -63 82 0
-38 53 -54 -70 0
-49 51 -85 -91 0
50 66 67 -90 0
68 -85 90 -91 0
3 19 68 -91 0
3 23 -50 68 0
-3 4 16 51 0
7 8 9 -48 0
8 -46 55 64 0
10 21 -77 88 0
11 12 34 57 0
-12 57 -78 -79 0
13 -31 58 -73 0
13 67 85 -89 0
-16 -49 -68 -89 0
-19 -23 -40 -43 0
-19 -23 -48 -55 0
-19 -23 -79 84 0
22 -41 -53 -72 0
24 -35 56 59 0
-30 -33 57 -80 0
42 -45 46 -55 0
-43 46 60 -87 0
-46 -47 55 64 0
60 69 70 83 0
62 -63 82 84 0
1 2 6 0
1 2 59 0
1 2 -62 0
1 2 83 0
1 8 -10 0
1 24 59 0
-1 -10 28 0
-1 28 33 0
2 5 -62 0
2 -32 -62 0
-2 -6 -65 0
3 24 56 0
-3 50 -66 0
-3 -51 67 0
4 -5 52 0
4 -5 -82 0
4 19 -51 0
4 23 -51 0
4 68 89 0
4 68 -89 0
-4 52 78 0
5 -33 63 0
5 59 63 0
5 -74 -82 0
5 78 -84 0
-5 6 -82 0
6 35 61 0
6 -36 -37 0
-6 -63 -65 0
7 8 55 0
-7 -8 -42 0
-7 -8 -45 0
-7 -60 83 0
8 -12 -70 0
8 -20 70 0
8 -46 55 0
-8 -39 -60 0
-8 -83 87 0
9 40 -43 0
10 -70 72 0
11 12 15 0
11 -23 -28 0
-11 -15 80 0
-11 30 57 0
12 -19 -28 0
13 49 67 0
13 49 -68 0
13 -68 -89 0
-13 28 57 0
-13 -67 86 0
-13 -85 90 0
-14 58 73 0
-14 -58 76 0
-14 -73 -78 0
15 -29 30 0
-15 -30 -73 0
-16 -49 -68 0
-16 -50 68 0
-16 -50 -68 0
-16 85 91 0
17 18 21 0
17 19 60 0
17 -22 -88 0
17 -44 -72 0
-17 -40 77 0
18 38 39 0
18 39 41 0
18 42 69 0
-18 -23 -38 0
-18 -39 -48 0
-18 47 -54 0
19 -33 -36 0
19 38 39 0
19 38 54 0
19 39 64 0
19 54 81 0
-19 24 -32 0
-19 -38 -64 0
-19 40 43 0
-19 79 80 0
20 -54 71 0
-20 53 72 0
-21 70 -88 0
-22 70 -88 0
23 -30 -80 0
23 -36 37 0
23 42 -43 0
23 42 48 0
23 74 75 0
-23 -24 -59 0
-23 30 36 0
-23 -68 91 0
-23 -86 89 0
24 -35 65 0
25 32 -56 0
-25 -27 -34 0
27 32 -34 0
-27 34 -57 0
29 -31 57 0
-30 -37 57 0
-35 -52 65 0
-35 -74 82 0
-36 -37 63 0
38 -54 72 0
-38 54 70 0
-39 -44 71 0
45 -60 -64 0
-46 47 -64 0
49 -51 67 0
-49 -51 -89 0
-50 -66 89 0
-51 66 -89 0
52 -63 78 0
53 72 -88 0
-54 -70 71 0
-58 -76 -80 0
66 86 90 0
-66 -67 86 0
-66 -67 89 0
-66 81 86 0
-66 -86 90 0
68 -86 90 0
74 -75 -76 0
-75 -76 -80 0
1 2 0
1 10 0
1 24 0
1 59 0
1 -62 0
1 -87 0
-1 -2 0
-1 8 0
-1 24 0
-1 33 0
-1 57 0
-1 -59 0
-1 -83 0
-1 -88 0
2 5 0
2 83 0
-2 -5 0
-2 -6 0
-2 35 0
-2 -36 0
-2 82 0
3 -26 0
3 -43 0
3 50 0
3 -51 0
3 60 0
3 -67 0
3 -88 0
3 -91 0
-3 -4 0
-3 -16 0
-3 50 0
-3 -51 0
-3 -66 0
4 -52 0
4 61 0
4 -61 0
4 63 0
4 -73 0
4 -84 0
4 89 0
4 90 0
-4 84 0
5 10 0
5 -52 0
5 59 0
5 -62 0
5 -78 0
-5 52 0
-5 84 0
6 41 0
-6 61 0
-6 65 0
7 40 0
7 -47 0
7 60 0
-7 -46 0
-7 -55 0
-7 83 0
-7 87 0
8 9 0
8 -12 0
8 -39 0
8 -46 0
8 62 0
-8 -9 0
-8 -69 0
-8 -83 0
-8 88 0
9 47 0
9 -47 0
-9 -40 0
-9 43 0
-9 -45 0
-9 -46 0
10 26 0
10 -28 0
10 -57 0
10 -60 0
10 83 0
-10 -12 0
-10 15 0
-10 -26 0
-10 34 0
-10 -38 0
-10 -83 0
11 14 0
11 -28 0
11 36 0
-11 -14 0
-11 31 0
-11 -57 0
-11 -76 0
12 26 0
12 -27 0
12 -73 0
12 -79 0
-12 -13 0
-12 -15 0
-12 31 0
-12 -57 0
-12 -58 0
-12 73 0
-12 79 0
13 -78 0
13 -79 0
13 85 0
13 90 0
13 -90 0
-13 -49 0
-13 -76 0
14 30 0
14 31 0
14 -58 0
14 73 0
14 -78 0
14 79 0
14 -79 0
15 -19 0
15 25 0
15 31 0
15 -57 0
15 73 0
-15 -19 0
16 50 0
16 56 0
17 22 0
17 -52 0
17 -88 0
-17 -18 0
-17 -19 0
18 21 0
18 54 0
18 60 0
18 64 0
-18 -41 0
-18 -47 0
-18 -60 0
-18 64 0
-18 -69 0
-18 81 0
-18 83 0
19 21 0
19 26 0
19 27 0
19 29 0
19 41 0
19 51 0
19 -65 0
19 69 0
19 -71 0
19 -76 0
19 85 0
-19 -24 0
-19 -26 0
-19 28 0
-19 -34 0
-19 36 0
-19 -41 0
-19 44 0
-19 -44 0
-19 -54 0
-19 63 0
-19 68 0
-19 -69 0
-19 -75 0
-19 -84 0
-19 86 0
-19 89 0
-19 -91 0
20 22 0
-20 -21 0
-20 -22 0
-20 -61 0
-20 69 0
-20 77 0
21 23 0
21 44 0
